(declare-const delta_cnt Int)
(declare-const delta_i Int)
(assert (exists
         ((|S1,0?1| Real) (|cnt'?2| Int) (KSUM1?3 Int) (|K1,0?4| Int)
            (K?5 Int) (|cnt'?6| Int) (|i'?7| Int) (length?8 Int) (cnt?9 Int)
            (i?10 Int) (maxgrid?11 Int))
         (and (<= (- i?10) 0) (< (- maxgrid?11) 0)
                (<= (+ (- maxgrid?11) i?10 1) 0) (<= (- K?5) 0)
                (<= (- |K1,0?4|) 0) (= (+ |K1,0?4| (- K?5)) 0)
                (<= (+ KSUM1?3 (- K?5)) 0)
                (= (+ (- |S1,0?1|) |cnt'?2| (- |K1,0?4|)) 0)
                (= (+ (- KSUM1?3) |K1,0?4|) 0) (= |S1,0?1| 0)
                (or (and (= K?5 0) (= (- |cnt'?2|) 0))
                      (and (<= (+ (- K?5) 1) 0) (<= (+ (- length?8) 1) 0)
                             (<= (+ (- length?8) |cnt'?2|) 0)
                             (<= (+ (- |cnt'?2|) 1) 0)))
                (= (+ |cnt'?2| (- K?5)) 0) (<= (- K?5) 0) (<= (- |cnt'?2|) 0)
                (< (+ length?8 (- |cnt'?2|) -1) 0)
                (= (+ |cnt'?6| (- |cnt'?2|)) 0) (= (+ |i'?7| (- i?10) -1) 0)
                (= delta_i (+ |i'?7| (- i?10)))
                (= delta_cnt (+ |cnt'?6| (- cnt?9))))))
(check-sat)
